SECTION Graph
Nodes 90
Edges 135
E 1 2 5
E 2 3 5
E 3 4 5
E 4 5 5
E 5 6 5
E 6 7 5
E 7 8 5
E 8 9 5
E 9 10 5
E 10 11 5
E 11 12 5
E 12 13 5
E 13 14 5
E 14 15 5
E 16 17 5
E 17 18 5
E 1 19 13
E 2 20 13
E 3 21 13
E 4 22 13
E 5 23 13
E 6 24 13
E 7 25 13
E 8 26 13
E 9 27 13
E 10 28 13
E 11 29 13
E 12 30 13
E 13 31 13
E 14 32 13
E 15 33 13
E 16 35 13
E 17 36 13
E 18 37 13
E 19 20 5
E 20 21 5
E 21 22 5
E 22 23 5
E 23 24 5
E 24 25 5
E 25 26 5
E 26 27 5
E 27 28 5
E 28 29 5
E 29 30 5
E 30 31 5
E 31 32 5
E 32 33 5
E 33 34 5
E 34 35 5
E 35 36 5
E 36 37 5
E 19 38 13
E 22 41 13
E 23 42 13
E 24 43 13
E 25 44 13
E 26 45 13
E 29 48 13
E 30 49 13
E 33 52 13
E 34 53 13
E 35 54 13
E 36 55 13
E 37 56 13
E 38 39 5
E 39 40 5
E 40 41 5
E 41 42 5
E 42 43 5
E 43 44 5
E 44 45 5
E 45 46 5
E 46 47 5
E 47 48 5
E 48 49 5
E 49 50 5
E 50 51 5
E 51 52 5
E 52 53 5
E 53 54 5
E 54 55 5
E 55 56 5
E 38 57 13
E 40 58 13
E 43 61 13
E 46 64 13
E 47 65 13
E 49 66 13
E 51 68 13
E 54 71 13
E 55 72 13
E 56 73 13
E 58 59 5
E 59 60 5
E 60 61 5
E 61 62 5
E 62 63 5
E 63 64 5
E 64 65 5
E 66 67 5
E 67 68 5
E 68 69 5
E 69 70 5
E 70 71 5
E 71 72 5
E 72 73 5
E 57 74 13
E 58 75 13
E 59 76 13
E 60 77 13
E 61 78 13
E 63 80 13
E 64 81 13
E 65 82 13
E 66 83 13
E 67 84 13
E 68 85 13
E 69 86 13
E 70 87 13
E 73 90 13
E 75 76 5
E 76 77 5
E 77 78 5
E 78 79 5
E 79 80 5
E 80 81 5
E 81 82 5
E 83 84 5
E 84 85 5
E 85 86 5
E 86 87 5
E 87 88 5
E 88 89 5
E 89 90 5
END

SECTION Terminals
Terminals 10
T 2
T 16
T 19
T 26
T 30
T 40
T 43
T 51
T 58
T 70
END

EOF
